     Program PWSCF v.6.2 (svn rev. 13949:13950) starts on 24Apr2018 at 14:48: 1

     R & G space division:  proc/nbgrp/npool/nimage =      16
     Reading input from /home/Daria.Satco/QE_calc/cnt4x2/cnt42.scf.in

     Current dimensions of program PWSCF are:
     Max number of different atomic species (ntypx) = 10
     Max number of k-points (npk) =  40000
     Max angular momentum in pseudopotentials (lmaxx) =  3

     bravais-lattice index     =            6
     lattice parameter (alat)  =      23.0000  a.u.
     unit-cell volume          =   11188.2520 (a.u.)^3
     number of atoms/cell      =           56
     number of atomic types    =            1
     number of electrons       =       224.00
     number of Kohn-Sham states=          112
     kinetic-energy cutoff     =      50.0000  Ry
     charge density cutoff     =     200.0000  Ry
     convergence threshold     =      1.0E-07
     mixing beta               =       0.7000
     number of iterations used =            8  plain     mixing
     Exchange-correlation      =  SLA  PZ   NOGX NOGC ( 1  1  0  0 0 0)

     celldm(1)=  23.000000  celldm(2)=   0.000000  celldm(3)=   0.919557
     celldm(4)=   0.000000  celldm(5)=   0.000000  celldm(6)=   0.000000

     crystal axes: (cart. coord. in units of alat)
               a(1) = (   1.000000   0.000000   0.000000 )
               a(2) = (   0.000000   1.000000   0.000000 )
               a(3) = (   0.000000   0.000000   0.919557 )

     reciprocal axes: (cart. coord. in units 2 pi/alat)
               b(1) = (  1.000000  0.000000  0.000000 )
               b(2) = (  0.000000  1.000000  0.000000 )
               b(3) = (  0.000000  0.000000  1.087480 )

     PseudoPot. # 1 for C  read from file:
     ./C.pz-vbc.UPF
     MD5 check sum: ab53dd623bfeb79c5a7b057bc96eae20
     Pseudo is Norm-conserving, Zval =  4.0
     Generated by new atomic code, or converted to UPF format
     Using radial grid of  269 points,  1 beta functions with:
                l(1) =   0

     atomic species   valence    mass     pseudopotential
        C              4.00     1.00000     C ( 1.00)

      2 Sym. Ops. (no inversion) found

                                    s                        frac. trans.

      isym =  1     identity

 cryst.   s( 1) = (     1          0          0      )
                  (     0          1          0      )
                  (     0          0          1      )

 cart.    s( 1) = (  1.0000000  0.0000000  0.0000000 )
                  (  0.0000000  1.0000000  0.0000000 )
                  (  0.0000000  0.0000000  1.0000000 )

      isym =  2     180 deg rotation - cart. axis [0,0,1]

 cryst.   s( 2) = (    -1          0          0      )
                  (     0         -1          0      )
                  (     0          0          1      )

 cart.    s( 2) = ( -1.0000000  0.0000000  0.0000000 )
                  (  0.0000000 -1.0000000  0.0000000 )
                  (  0.0000000  0.0000000  1.0000000 )

     point group C_2  (2)
     there are  2 classes
     the character table:

       E     C2
A      1.00  1.00
B      1.00 -1.00

     the symmetry operations in each class and the name of the first element:

     E        1
          identity
     C2       2
          180 deg rotation - cart. axis [0,0,1]

   Cartesian axes

     site n.     atom                  positions (alat units)
         1           C   tau(   1) = (   0.1725202   0.0000000  -0.4642322  )
         2           C   tau(   2) = (   0.1725202  -0.0001146  -0.1549764  )
         3           C   tau(   3) = (   0.1682994   0.0379280  -0.2652761  )
         4           C   tau(   4) = (   0.1074076   0.1350068  -0.2876138  )
         5           C   tau(   5) = (   0.0749958   0.1553669  -0.3979135  )
         6           C   tau(   6) = (  -0.0388924   0.1680792  -0.4202512  )
         7           C   tau(   7) = (   0.1683246   0.0378162   0.0439797  )
         8           C   tau(   8) = (   0.1558435   0.0740002  -0.0663200  )
         9           C   tau(   9) = (   0.0750989   0.1553170  -0.0886577  )
        10           C   tau(  10) = (   0.0390040   0.1680533  -0.1989574  )
        11           C   tau(  11) = (  -0.0748926   0.1554167  -0.2212951  )
        12           C   tau(  12) = (  -0.1073179   0.1350782  -0.3315948  )
        13           C   tau(  13) = (  -0.1682742   0.0380399  -0.3539325  )
        14           C   tau(  14) = (  -0.1725202   0.0000000  -0.4642322  )
        15           C   tau(  15) = (   0.1558926   0.0738967   0.2429357  )
        16           C   tau(  16) = (   0.1357620   0.1064515   0.1326361  )
        17           C   tau(  17) = (   0.0391157   0.1680274   0.1102984  )
        18           C   tau(  18) = (   0.0011038   0.1725167  -0.0000013  )
        19           C   tau(  19) = (  -0.1072281   0.1351494  -0.0223390  )
        20           C   tau(  20) = (  -0.1343888   0.1081799  -0.1326387  )
        21           C   tau(  21) = (  -0.1725202   0.0001146  -0.1549764  )
        22           C   tau(  22) = (  -0.1682994  -0.0379280  -0.2652761  )
        23           C   tau(  23) = (  -0.1074076  -0.1350068  -0.2876138  )
        24           C   tau(  24) = (  -0.0749958  -0.1553669  -0.3979135  )
        25           C   tau(  25) = (   0.0388924  -0.1680792  -0.4202512  )
        26           C   tau(  26) = (   0.1358327   0.1063613   0.4418918  )
        27           C   tau(  27) = (   0.1090374   0.1336939   0.3315921  )
        28           C   tau(  28) = (   0.0012184   0.1725160   0.3092544  )
        29           C   tau(  29) = (  -0.0368505   0.1685387   0.1989547  )
        30           C   tau(  30) = (  -0.1343169   0.1082691   0.1766171  )
        31           C   tau(  31) = (  -0.1548839   0.0759883   0.0663174  )
        32           C   tau(  32) = (  -0.1683246  -0.0378162   0.0439797  )
        33           C   tau(  33) = (  -0.1558435  -0.0740002  -0.0663200  )
        34           C   tau(  34) = (  -0.0750989  -0.1553170  -0.0886577  )
        35           C   tau(  35) = (  -0.0390040  -0.1680533  -0.1989574  )
        36           C   tau(  36) = (   0.0748926  -0.1554167  -0.2212951  )
        37           C   tau(  37) = (   0.1073179  -0.1350782  -0.3315948  )
        38           C   tau(  38) = (   0.1682742  -0.0380399  -0.3539325  )
        39           C   tau(  39) = (  -0.0730017   0.1563138   0.3979108  )
        40           C   tau(  40) = (  -0.1548334   0.0760911   0.3755731  )
        41           C   tau(  41) = (  -0.1678004   0.0400784   0.2652734  )
        42           C   tau(  42) = (  -0.1558926  -0.0738967   0.2429357  )
        43           C   tau(  43) = (  -0.1357620  -0.1064515   0.1326361  )
        44           C   tau(  44) = (  -0.0391157  -0.1680274   0.1102984  )
        45           C   tau(  45) = (  -0.0011038  -0.1725167  -0.0000013  )
        46           C   tau(  46) = (   0.1072281  -0.1351494  -0.0223390  )
        47           C   tau(  47) = (   0.1343888  -0.1081799  -0.1326387  )
        48           C   tau(  48) = (  -0.1358327  -0.1063613   0.4418918  )
        49           C   tau(  49) = (  -0.1090374  -0.1336939   0.3315921  )
        50           C   tau(  50) = (  -0.0012184  -0.1725160   0.3092544  )
        51           C   tau(  51) = (   0.0368505  -0.1685387   0.1989547  )
        52           C   tau(  52) = (   0.1343169  -0.1082691   0.1766171  )
        53           C   tau(  53) = (   0.1548839  -0.0759883   0.0663174  )
        54           C   tau(  54) = (   0.0730017  -0.1563138   0.3979108  )
        55           C   tau(  55) = (   0.1548334  -0.0760911   0.3755731  )
        56           C   tau(  56) = (   0.1678004  -0.0400784   0.2652734  )

   Crystallographic axes

     site n.     atom                  positions (cryst. coord.)
         1           C   tau(   1) = (  0.1725202  0.0000000 -0.5048432  )
         2           C   tau(   2) = (  0.1725202 -0.0001146 -0.1685337  )
         3           C   tau(   3) = (  0.1682994  0.0379280 -0.2884824  )
         4           C   tau(   4) = (  0.1074076  0.1350068 -0.3127742  )
         5           C   tau(   5) = (  0.0749958  0.1553669 -0.4327229  )
         6           C   tau(   6) = ( -0.0388924  0.1680792 -0.4570147  )
         7           C   tau(   7) = (  0.1683246  0.0378162  0.0478270  )
         8           C   tau(   8) = (  0.1558435  0.0740002 -0.0721217  )
         9           C   tau(   9) = (  0.0750989  0.1553170 -0.0964135  )
        10           C   tau(  10) = (  0.0390040  0.1680533 -0.2163621  )
        11           C   tau(  11) = ( -0.0748926  0.1554167 -0.2406539  )
        12           C   tau(  12) = ( -0.1073179  0.1350782 -0.3606027  )
        13           C   tau(  13) = ( -0.1682742  0.0380399 -0.3848945  )
        14           C   tau(  14) = ( -0.1725202  0.0000000 -0.5048432  )
        15           C   tau(  15) = (  0.1558926  0.0738967  0.2641877  )
        16           C   tau(  16) = (  0.1357620  0.1064515  0.1442391  )
        17           C   tau(  17) = (  0.0391157  0.1680274  0.1199473  )
        18           C   tau(  18) = (  0.0011038  0.1725167 -0.0000014  )
        19           C   tau(  19) = ( -0.1072281  0.1351494 -0.0242932  )
        20           C   tau(  20) = ( -0.1343888  0.1081799 -0.1442420  )
        21           C   tau(  21) = ( -0.1725202  0.0001146 -0.1685337  )
        22           C   tau(  22) = ( -0.1682994 -0.0379280 -0.2884824  )
        23           C   tau(  23) = ( -0.1074076 -0.1350068 -0.3127742  )
        24           C   tau(  24) = ( -0.0749958 -0.1553669 -0.4327229  )
        25           C   tau(  25) = (  0.0388924 -0.1680792 -0.4570147  )
        26           C   tau(  26) = (  0.1358327  0.1063613  0.4805485  )
        27           C   tau(  27) = (  0.1090374  0.1336939  0.3605998  )
        28           C   tau(  28) = (  0.0012184  0.1725160  0.3363080  )
        29           C   tau(  29) = ( -0.0368505  0.1685387  0.2163593  )
        30           C   tau(  30) = ( -0.1343169  0.1082691  0.1920675  )
        31           C   tau(  31) = ( -0.1548839  0.0759883  0.0721188  )
        32           C   tau(  32) = ( -0.1683246 -0.0378162  0.0478270  )
        33           C   tau(  33) = ( -0.1558435 -0.0740002 -0.0721217  )
        34           C   tau(  34) = ( -0.0750989 -0.1553170 -0.0964135  )
        35           C   tau(  35) = ( -0.0390040 -0.1680533 -0.2163621  )
        36           C   tau(  36) = (  0.0748926 -0.1554167 -0.2406539  )
        37           C   tau(  37) = (  0.1073179 -0.1350782 -0.3606027  )
        38           C   tau(  38) = (  0.1682742 -0.0380399 -0.3848945  )
        39           C   tau(  39) = ( -0.0730017  0.1563138  0.4327201  )
        40           C   tau(  40) = ( -0.1548334  0.0760911  0.4084283  )
        41           C   tau(  41) = ( -0.1678004  0.0400784  0.2884795  )
        42           C   tau(  42) = ( -0.1558926 -0.0738967  0.2641877  )
        43           C   tau(  43) = ( -0.1357620 -0.1064515  0.1442391  )
        44           C   tau(  44) = ( -0.0391157 -0.1680274  0.1199473  )
        45           C   tau(  45) = ( -0.0011038 -0.1725167 -0.0000014  )
        46           C   tau(  46) = (  0.1072281 -0.1351494 -0.0242932  )
        47           C   tau(  47) = (  0.1343888 -0.1081799 -0.1442420  )
        48           C   tau(  48) = ( -0.1358327 -0.1063613  0.4805485  )
        49           C   tau(  49) = ( -0.1090374 -0.1336939  0.3605998  )
        50           C   tau(  50) = ( -0.0012184 -0.1725160  0.3363080  )
        51           C   tau(  51) = (  0.0368505 -0.1685387  0.2163593  )
        52           C   tau(  52) = (  0.1343169 -0.1082691  0.1920675  )
        53           C   tau(  53) = (  0.1548839 -0.0759883  0.0721188  )
        54           C   tau(  54) = (  0.0730017 -0.1563138  0.4327201  )
        55           C   tau(  55) = (  0.1548334 -0.0760911  0.4084283  )
        56           C   tau(  56) = (  0.1678004 -0.0400784  0.2884795  )

     number of k points=    12
                       cart. coord. in units 2pi/alat
        k(    1) = (   0.0000000   0.0000000   0.0000000), wk =   0.0869565
        k(    2) = (   0.0000000   0.0000000   0.0472817), wk =   0.1739130
        k(    3) = (   0.0000000   0.0000000   0.0945635), wk =   0.1739130
        k(    4) = (   0.0000000   0.0000000   0.1418452), wk =   0.1739130
        k(    5) = (   0.0000000   0.0000000   0.1891270), wk =   0.1739130
        k(    6) = (   0.0000000   0.0000000   0.2364087), wk =   0.1739130
        k(    7) = (   0.0000000   0.0000000   0.2836904), wk =   0.1739130
        k(    8) = (   0.0000000   0.0000000   0.3309722), wk =   0.1739130
        k(    9) = (   0.0000000   0.0000000   0.3782539), wk =   0.1739130
        k(   10) = (   0.0000000   0.0000000   0.4255356), wk =   0.1739130
        k(   11) = (   0.0000000   0.0000000   0.4728174), wk =   0.1739130
        k(   12) = (   0.0000000   0.0000000   0.5200991), wk =   0.1739130

                       cryst. coord.
        k(    1) = (   0.0000000   0.0000000   0.0000000), wk =   0.0869565
        k(    2) = (   0.0000000   0.0000000   0.0434783), wk =   0.1739130
        k(    3) = (   0.0000000   0.0000000   0.0869565), wk =   0.1739130
        k(    4) = (   0.0000000   0.0000000   0.1304348), wk =   0.1739130
        k(    5) = (   0.0000000   0.0000000   0.1739130), wk =   0.1739130
        k(    6) = (   0.0000000   0.0000000   0.2173913), wk =   0.1739130
        k(    7) = (   0.0000000   0.0000000   0.2608696), wk =   0.1739130
        k(    8) = (   0.0000000   0.0000000   0.3043478), wk =   0.1739130
        k(    9) = (   0.0000000   0.0000000   0.3478261), wk =   0.1739130
        k(   10) = (   0.0000000   0.0000000   0.3913043), wk =   0.1739130
        k(   11) = (   0.0000000   0.0000000   0.4347826), wk =   0.1739130
        k(   12) = (   0.0000000   0.0000000   0.4782609), wk =   0.1739130

     Initial potential from superposition of free atoms
     Check: negative starting charge=   -0.019048

     starting charge  223.99840, renormalised to  224.00000

     negative rho (up, down):  1.905E-02 0.000E+00
     Starting wfc are  224 randomized atomic wfcs

     Self-consistent Calculation

     iteration #  1     ecut=    50.00 Ry     beta= 0.70
     Davidson diagonalization with overlap
     ethr =  1.00E-02,  avg # of iterations =  2.0

     negative rho (up, down):  4.774E-03 0.000E+00

     total energy              =    -633.50307562 Ry
     Harris-Foulkes estimate   =    -638.02669086 Ry
     estimated scf accuracy    <       6.86366800 Ry

[...]

     negative rho (up, down):  7.397E-07 0.000E+00

[...]

     total energy              =    -635.11531811 Ry
     Harris-Foulkes estimate   =    -635.11531833 Ry
     estimated scf accuracy    <       0.00000049 Ry

     iteration # 11     ecut=    50.00 Ry     beta= 0.70
     Davidson diagonalization with overlap
     ethr =  2.18E-10,  avg # of iterations =  5.0

     End of self-consistent calculation

          k = 0.0000 0.0000 0.0000 ( 66731 PWs)   bands (ev):

   -21.5287 -20.7100 -20.5903 -20.5897 -20.5230 -19.7985 -19.7770 -19.6119
   -19.5833 -18.3381 -18.2636 -18.1567 -18.0495 -17.5513 -17.4994 -17.3367
   -17.3356 -17.3166 -17.2758 -17.2226 -17.1503 -15.5267 -15.3779 -15.2360
   -15.2353 -15.2317 -14.6841 -14.5324 -14.5020 -14.0667 -14.0035 -13.9286
   -13.9019 -13.4621 -13.3972 -13.3026 -13.1549 -12.1114 -12.1099 -11.6809
   -11.5831 -11.5797 -11.5336 -11.4296 -11.4251 -11.3638 -11.3060 -10.7725
   -10.7693 -10.5117 -10.4967  -9.9163  -9.2650  -9.1555  -9.1411  -9.0893
    -9.0407  -8.9721  -8.9519  -8.9326  -8.9086  -8.8683  -8.8412  -8.8037
    -8.7985  -8.7268  -8.6944  -8.6296  -8.6257  -8.5812  -8.2272  -7.9457
    -7.8707  -7.8295  -7.7775  -7.6184  -7.5783  -7.4993  -7.4641  -6.9159
    -6.8686  -6.5393  -6.4044  -6.2479  -6.1991  -5.8691  -5.8644  -5.8023
    -5.7906  -5.7734  -5.6552  -5.5464  -5.3725  -5.2765  -5.1840  -4.6062
    -4.5878  -4.5124  -4.5082  -4.4443  -4.4263  -4.4207  -4.3481  -4.2970
    -4.2919  -3.1175  -2.6830  -2.5846  -2.4743  -2.2674  -1.7413  -1.6605

     occupation numbers
     1.0000   1.0000   1.0000   1.0000   1.0000   1.0000   1.0000   1.0000
     1.0000   1.0000   1.0000   1.0000   1.0000   1.0000   1.0000   1.0000
     1.0000   1.0000   1.0000   1.0000   1.0000   1.0000   1.0000   1.0000
     1.0000   1.0000   1.0000   1.0000   1.0000   1.0000   1.0000   1.0000
     1.0000   1.0000   1.0000   1.0000   1.0000   1.0000   1.0000   1.0000
     1.0000   1.0000   1.0000   1.0000   1.0000   1.0000   1.0000   1.0000
     1.0000   1.0000   1.0000   1.0000   1.0000   1.0000   1.0000   1.0000
     1.0000   1.0000   1.0000   1.0000   1.0000   1.0000   1.0000   1.0000
     1.0000   1.0000   1.0000   1.0000   1.0000   1.0000   1.0000   1.0000
     1.0000   1.0000   1.0000   1.0000   1.0000   1.0000   1.0000   1.0000
     1.0000   1.0000   1.0000   1.0000   1.0000   1.0000   1.0000   1.0000
     1.0000   1.0000   1.0000   1.0000   1.0000   1.0000   1.0000   1.0000
     1.0000   1.0000   1.0000   1.0000   1.0000   1.0000   1.0000   1.0000
     1.0000   1.0000   1.0000   1.0000   1.0000   1.0000   1.0000   1.0000

[...]

          k = 0.0000 0.0000 0.5201 ( 66756 PWs)   bands (ev):

   -21.4200 -21.1500 -20.4901 -20.4849 -20.2149 -20.2081 -19.6517 -19.4668
   -18.7699 -18.7376 -18.5871 -18.5439 -18.2531 -18.1576 -17.9182 -17.9104
   -16.5864 -16.5126 -16.4152 -16.3565 -16.3317 -16.2114 -15.8979 -15.5719
   -15.5325 -15.3893 -15.0836 -15.0081 -14.8821 -14.3262 -13.4803 -13.4522
   -13.4075 -13.3529 -13.2597 -13.2482 -13.1925 -13.1585 -12.1472 -11.9740
   -11.3087 -11.2681 -11.1245 -10.8867 -10.8322 -10.7252 -10.7139 -10.6686
   -10.5512 -10.4185 -10.3203 -10.2228 -10.1708 -10.1536  -9.8128  -9.7666
    -9.7063  -9.5526  -9.5290  -9.3773  -8.9655  -8.9491  -8.9424  -8.8309
    -8.5755  -8.5357  -8.2772  -8.1066  -8.0603  -8.0547  -7.8160  -7.8071
    -7.8044  -7.6981  -7.6566  -7.6302  -7.6071  -7.5264  -6.9654  -6.8761
    -6.8096  -6.8084  -6.5019  -6.4305  -6.1713  -6.0265  -5.8582  -5.8248
    -5.7225  -5.7054  -5.6892  -5.5663  -5.2597  -5.1953  -5.0393  -5.0372
    -4.8984  -4.8916  -4.8540  -4.7572  -3.9752  -3.7846  -3.6583  -3.6124
    -3.5811  -3.4157  -3.3163  -2.9507  -2.7818  -2.5344  -2.0030  -1.8694

     occupation numbers
     1.0000   1.0000   1.0000   1.0000   1.0000   1.0000   1.0000   1.0000
     1.0000   1.0000   1.0000   1.0000   1.0000   1.0000   1.0000   1.0000
     1.0000   1.0000   1.0000   1.0000   1.0000   1.0000   1.0000   1.0000
     1.0000   1.0000   1.0000   1.0000   1.0000   1.0000   1.0000   1.0000
     1.0000   1.0000   1.0000   1.0000   1.0000   1.0000   1.0000   1.0000
     1.0000   1.0000   1.0000   1.0000   1.0000   1.0000   1.0000   1.0000
     1.0000   1.0000   1.0000   1.0000   1.0000   1.0000   1.0000   1.0000
     1.0000   1.0000   1.0000   1.0000   1.0000   1.0000   1.0000   1.0000
     1.0000   1.0000   1.0000   1.0000   1.0000   1.0000   1.0000   1.0000
     1.0000   1.0000   1.0000   1.0000   1.0000   1.0000   1.0000   1.0000
     1.0000   1.0000   1.0000   1.0000   1.0000   1.0000   1.0000   1.0000
     1.0000   1.0000   1.0000   1.0000   1.0000   1.0000   1.0000   1.0000
     1.0000   1.0000   1.0000   1.0000   1.0000   1.0000   1.0000   1.0000
     1.0000   1.0000   1.0000   1.0000   1.0000   1.0000   1.0000   1.0000

     highest occupied level (ev):    -1.6524

!    total energy              =    -635.11531787 Ry
     Harris-Foulkes estimate   =    -635.11531825 Ry
     estimated scf accuracy    <       0.00000008 Ry

     The total energy is the sum of the following terms:

     one-electron contribution =   -3876.66706601 Ry
     hartree contribution      =    1978.90342007 Ry
     xc contribution           =    -194.58642372 Ry
     ewald contribution        =    1457.23475180 Ry

     convergence has been achieved in  11 iterations

     Writing output data file cnt42.save

     General routines

     Parallel routines

   This run was terminated on:  14:51:42  24Apr2018

   JOB DONE.